# Node Net
 49   1
 20   1
1620   1
3569   1
2281   1
2640   2
3559   2
 34   2
 43   2
 33   2
3563   3
3001   3
3546   3
3567   3
3060   3
3121   4
3578   4
 46   4
 59   4
1380   4
2401   5
 45   5
1921   5
3420   6
  3   6
 19   6
3596   7
1561   7
3573   7
3421   8
3579   8
1980   8
3061   9
721   9
3589   9
1981  10
3591  10
2760  10
2160  11
1801  11
 31  11
3577  12
1560  12
3584  13
1621  13
